p wcnf 121 182 10
5 -1 0
5 -2 0
5 -3 0
5 -4 0
5 -5 0
5 -6 0
5 -7 0
5 -8 0
5 -9 0
5 -10 0
5 -11 0
5 -12 0
5 -13 0
5 -14 0
5 -15 0
5 -16 0
5 -17 0
5 -18 0
5 -19 0
5 -20 0
5 -21 0
5 -22 0
5 -23 0
5 -24 0
5 -25 0
5 -26 0
5 -27 0
5 -28 0
5 -29 0
5 -30 0
5 -31 0
5 -32 0
5 -33 0
5 -34 0
5 -35 0
5 -36 0
5 -37 0
5 -38 0
5 -39 0
5 -40 0
5 -41 0
5 -42 0
5 -43 0
5 -44 0
5 -45 0
5 -46 0
5 -47 0
5 -48 0
5 -49 0
5 -50 0
5 -51 0
5 -52 0
5 -53 0
5 -54 0
5 -55 0
5 -56 0
5 -57 0
5 -58 0
5 -59 0
5 -60 0
5 -61 0
5 -62 0
5 -63 0
5 -64 0
5 -65 0
5 -66 0
5 -67 0
5 -68 0
5 -69 0
5 -70 0
5 -71 0
5 -72 0
5 -73 0
5 -74 0
5 -75 0
5 -76 0
5 -77 0
5 -78 0
5 -79 0
5 -80 0
5 -81 0
5 -82 0
5 -83 0
5 -84 0
5 -85 0
5 -86 0
5 -87 0
5 -88 0
5 -89 0
5 -90 0
5 -91 0
5 -92 0
5 -93 0
5 -94 0
5 -95 0
5 -96 0
5 -97 0
5 -98 0
5 -99 0
5 -100 0
5 -101 0
5 -102 0
5 -103 0
5 -104 0
5 -105 0
5 -106 0
5 -107 0
5 -108 0
5 -109 0
5 -110 0
5 -111 0
5 -112 0
5 -113 0
5 -114 0
5 -115 0
5 -116 0
5 -117 0
5 -118 0
5 -119 0
5 -120 0
10 1 2 3 4 5 6 7 8 9 10 11 12 13 14 15 16 17 18 19 20 21 22 23 24 25 26 27 28 29 30 31 32 33 34 35 36 37 38 39 40 41 42 43 44 45 46 47 48 49 50 51 52 53 54 55 56 57 58 59 60 61 62 63 64 65 66 67 68 69 70 71 72 73 74 75 76 77 78 79 80 81 82 83 84 85 86 87 88 89 90 91 92 93 94 95 96 97 98 99 100 101 102 103 104 105 106 107 108 109 110 111 112 113 114 115 116 117 118 119 120 0
10 121 0
x 10 1 61 62 63 64 65 67 68 69 70 71 74 75 76 79 82 83 84 88 90 92 93 94 102 103 107 111 112 113 114 116 117 118 120 121 0
x 10 2 61 64 67 69 72 73 74 77 78 79 80 83 85 87 90 91 92 94 95 96 97 99 100 102 106 107 109 111 112 114 116 117 121 0
x 10 3 63 64 65 71 73 75 77 79 80 81 82 84 86 88 94 95 96 97 98 99 103 104 105 106 107 108 109 112 113 116 117 118 120 121 0
x 10 4 61 65 68 69 71 73 74 75 76 78 79 80 81 83 84 85 90 91 92 94 95 96 97 100 102 107 108 110 112 113 117 118 121 0
x 10 5 61 64 65 66 70 73 74 75 77 78 80 83 85 86 88 90 91 92 94 95 96 100 103 105 109 111 112 113 114 115 116 117 120 121 0
x 10 6 61 62 64 65 70 72 74 76 79 80 81 84 85 86 89 90 95 98 101 103 106 111 112 118 119 120 121 0
x 10 7 61 62 63 69 70 71 72 73 74 77 82 84 85 86 87 88 91 95 96 98 101 102 104 105 106 107 109 111 113 116 117 119 121 0
x 10 8 61 63 66 72 73 78 79 80 81 83 85 86 88 90 91 94 97 103 104 105 106 110 113 115 116 117 118 119 120 121 0
x 10 9 61 63 64 65 66 68 69 70 73 75 77 78 83 84 88 89 92 93 94 95 100 101 103 106 109 111 112 117 118 119 121 0
x 10 10 65 66 67 69 70 71 73 75 77 79 83 84 89 92 93 97 98 99 100 101 104 105 108 109 110 115 121 0
x 10 11 64 66 68 70 71 73 77 84 85 86 88 89 91 93 97 99 100 101 103 105 107 108 110 112 116 117 118 121 0
x 10 12 61 63 67 71 72 77 79 81 82 83 84 86 89 90 91 93 95 96 99 100 101 102 104 107 108 109 110 115 116 118 119 121 0
x 10 13 64 66 67 68 71 73 75 76 77 79 80 84 85 86 87 88 90 93 95 98 101 102 103 105 106 107 108 110 112 113 114 117 118 119 120 121 0
x 10 14 62 64 65 68 69 70 72 73 74 79 83 84 88 91 92 93 94 95 99 100 102 104 106 107 108 110 111 113 114 117 121 0
x 10 15 61 62 63 65 66 70 71 77 78 79 81 83 84 85 86 89 90 93 95 98 100 102 103 105 106 107 109 110 118 119 120 121 0
x 10 16 65 67 71 74 76 77 78 80 86 87 88 89 90 97 98 100 101 103 104 106 109 110 112 113 116 117 121 0
x 10 17 61 63 64 65 66 67 68 70 71 76 77 78 79 81 83 86 89 90 91 95 96 98 101 104 105 107 112 113 116 117 118 119 120 121 0
x 10 18 62 63 64 67 68 70 72 74 78 79 80 81 83 85 86 88 89 90 91 92 97 99 103 105 106 107 108 110 111 113 120 121 0
x 10 19 62 63 64 65 66 72 73 74 75 77 78 81 82 85 86 88 89 91 94 96 98 103 104 105 106 107 108 109 110 111 113 116 119 121 0
x 10 20 61 62 64 68 70 76 79 80 81 85 86 88 89 92 94 97 98 100 102 103 105 106 108 110 112 114 116 117 118 121 0
x 10 21 61 62 66 70 73 76 77 78 79 82 83 86 87 89 90 92 96 97 98 100 101 105 108 110 114 116 119 120 121 0
x 10 22 62 64 65 67 68 69 70 71 72 77 78 80 82 85 87 95 97 99 100 105 106 107 108 109 110 112 113 114 115 116 118 119 121 0
x 10 23 61 68 69 71 74 76 78 79 81 82 83 84 85 86 87 88 91 93 95 97 99 105 106 109 110 111 112 114 115 117 120 121 0
x 10 24 61 62 67 70 71 75 76 77 78 79 81 83 86 88 92 96 97 100 101 103 104 105 106 107 113 116 117 118 119 121 0
x 10 25 61 63 65 66 67 70 72 73 75 77 78 80 83 84 87 88 92 93 94 95 99 101 104 107 109 110 111 114 118 119 120 121 0
x 10 26 62 63 65 67 70 72 74 76 77 82 85 86 88 90 91 92 95 96 100 103 104 106 112 115 116 117 118 121 0
x 10 27 61 62 64 65 67 68 72 73 74 75 76 78 83 87 89 92 93 94 95 96 97 98 99 101 103 106 107 108 110 111 112 115 117 121 0
x 10 28 61 63 64 66 68 69 72 74 76 79 81 82 83 85 86 89 91 92 94 96 97 105 106 110 111 112 120 121 0
x 10 29 61 64 65 66 68 71 73 74 77 79 80 81 87 90 91 92 94 95 96 98 100 103 104 105 106 107 109 110 112 113 114 115 116 117 118 119 120 121 0
x 10 30 66 69 70 71 72 75 76 80 83 84 88 89 90 93 94 96 98 101 102 103 104 106 111 112 113 116 119 121 0
x 10 31 62 63 65 68 69 71 72 73 74 75 76 77 78 80 81 82 83 84 86 87 90 91 93 97 98 100 101 103 104 105 106 109 111 114 116 121 0
x 10 32 63 67 68 69 72 75 76 77 78 80 82 83 84 86 87 91 92 93 94 98 102 103 105 106 108 110 113 115 121 0
x 10 33 61 63 67 70 74 75 78 80 87 89 90 93 96 97 98 99 101 102 104 105 106 107 108 111 112 115 116 117 120 121 0
x 10 34 62 63 65 67 70 72 73 74 77 79 80 81 82 83 84 87 88 90 93 96 97 98 102 103 104 110 116 117 120 121 0
x 10 35 61 63 71 73 74 76 77 78 82 84 86 90 91 96 97 102 103 106 107 108 113 118 121 0
x 10 36 61 62 63 67 68 69 70 71 72 73 74 76 77 79 84 85 86 88 89 91 95 96 99 101 107 108 109 114 115 116 118 119 120 121 0
x 10 37 62 65 66 67 68 69 70 71 73 74 75 80 81 82 84 85 86 87 89 92 93 94 95 96 101 105 106 109 110 111 112 114 120 121 0
x 10 38 61 64 65 66 67 69 71 73 75 78 79 81 82 83 86 88 90 91 94 95 96 97 98 99 100 101 106 109 110 111 114 116 119 121 0
x 10 39 63 64 65 66 67 69 71 75 77 79 85 88 93 100 101 102 103 104 106 109 110 111 113 114 121 0
x 10 40 65 67 69 70 71 72 82 85 86 87 91 92 93 94 95 97 98 103 105 106 108 109 110 112 113 114 116 117 121 0
x 10 41 63 65 67 69 70 72 75 77 78 79 83 85 86 88 89 90 91 93 97 98 99 102 104 105 108 110 113 114 115 117 120 121 0
x 10 42 64 66 68 72 73 76 78 79 80 82 83 86 88 89 93 94 96 97 98 99 101 102 110 111 113 114 115 118 119 121 0
x 10 43 63 64 68 70 72 74 75 82 83 89 90 93 95 96 97 98 99 102 103 104 106 107 109 111 112 113 114 115 118 119 120 121 0
x 10 44 61 65 66 70 72 77 84 86 87 90 92 98 100 101 102 103 105 108 109 111 113 114 116 118 120 121 0
x 10 45 65 66 69 71 72 73 75 79 80 81 82 88 91 93 94 97 98 99 102 103 105 106 110 112 114 115 116 119 120 121 0
x 10 46 63 64 65 66 67 68 70 71 74 75 78 79 82 83 84 85 87 89 90 93 97 104 105 108 109 112 114 115 117 118 120 121 0
x 10 47 61 63 64 65 66 67 68 69 71 75 80 81 82 84 85 86 88 91 93 94 95 101 102 103 105 106 108 110 111 112 113 114 116 117 121 0
x 10 48 61 62 63 66 70 72 73 74 77 78 80 81 84 85 86 87 90 91 93 97 99 101 103 105 109 110 111 114 116 118 121 0
x 10 49 63 64 65 66 71 73 77 82 86 88 89 91 93 96 97 99 111 114 115 118 119 120 121 0
x 10 50 61 62 67 68 70 71 73 76 77 78 89 90 92 93 95 97 99 100 106 111 113 114 116 117 119 120 121 0
x 10 51 61 63 64 65 67 69 70 71 72 73 74 75 77 79 80 82 84 85 86 87 88 89 93 94 98 99 100 101 104 108 109 111 113 114 118 119 121 0
x 10 52 63 65 71 73 74 76 77 78 81 85 92 93 95 96 99 100 101 103 108 109 111 121 0
x 10 53 61 63 66 67 68 73 75 77 80 81 82 84 85 87 88 91 95 96 97 100 103 105 109 110 115 120 121 0
x 10 54 64 65 66 70 71 73 74 75 77 79 82 86 87 90 95 96 99 102 103 104 107 108 111 112 114 115 118 119 120 121 0
x 10 55 61 65 66 69 71 76 77 80 83 84 88 91 92 93 94 96 97 99 100 102 104 107 108 110 113 114 118 120 121 0
x 10 56 61 67 68 69 70 71 72 74 75 76 78 79 80 81 83 85 86 87 89 91 94 95 96 97 100 103 105 108 109 110 111 112 113 114 115 117 119 120 121 0
x 10 57 62 63 67 68 69 71 73 75 76 80 83 84 85 87 90 91 92 93 94 96 98 101 102 103 104 105 109 110 113 114 115 116 120 121 0
x 10 58 61 65 66 68 70 78 80 82 83 84 86 88 89 92 96 97 99 101 102 103 106 107 108 109 111 113 117 118 119 120 121 0
x 10 59 61 64 67 70 71 75 78 80 81 85 87 88 89 91 96 98 103 104 106 107 110 113 115 118 119 121 0
x 10 60 64 66 67 68 71 72 73 74 76 77 78 79 80 81 82 83 84 85 87 91 92 93 94 97 100 102 103 105 108 109 110 112 114 116 119 120 121 0
